
n_res = 6;
rcap = [80, 86, 1345, 1354, 1347, 1265];
rtype = [1, 1, 2, 2, 2, 2];
n_tasks = 100;
modes =  [{1, 2, 3, 4, 5, 6, 7, 8, 9}, {10, 11, 12, 13, 14, 15, 16, 17, 18}, {19, 20, 21, 22, 23, 24, 25, 26, 27}, {28, 29, 30, 31, 32, 33, 34, 35, 36}, {37, 38, 39, 40, 41, 42, 43, 44, 45}, {46, 47, 48, 49, 50, 51, 52, 53, 54}, {55, 56, 57, 58, 59, 60, 61, 62, 63}, {64, 65, 66, 67, 68, 69, 70, 71, 72}, {73, 74, 75, 76, 77, 78, 79, 80, 81}, {82, 83, 84, 85, 86, 87, 88, 89, 90}, {91, 92, 93, 94, 95, 96, 97, 98, 99}, {100, 101, 102, 103, 104, 105, 106, 107, 108}, {109, 110, 111, 112, 113, 114, 115, 116, 117}, {118, 119, 120, 121, 122, 123, 124, 125, 126}, {127, 128, 129, 130, 131, 132, 133, 134, 135}, {136, 137, 138, 139, 140, 141, 142, 143, 144}, {145, 146, 147, 148, 149, 150, 151, 152, 153}, {154, 155, 156, 157, 158, 159, 160, 161, 162}, {163, 164, 165, 166, 167, 168, 169, 170, 171}, {172, 173, 174, 175, 176, 177, 178, 179, 180}, {181, 182, 183, 184, 185, 186, 187, 188, 189}, {190, 191, 192, 193, 194, 195, 196, 197, 198}, {199, 200, 201, 202, 203, 204, 205, 206, 207}, {208, 209, 210, 211, 212, 213, 214, 215, 216}, {217, 218, 219, 220, 221, 222, 223, 224, 225}, {226, 227, 228, 229, 230, 231, 232, 233, 234}, {235, 236, 237, 238, 239, 240, 241, 242, 243}, {244, 245, 246, 247, 248, 249, 250, 251, 252}, {253, 254, 255, 256, 257, 258, 259, 260, 261}, {262, 263, 264, 265, 266, 267, 268, 269, 270}, {271, 272, 273, 274, 275, 276, 277, 278, 279}, {280, 281, 282, 283, 284, 285, 286, 287, 288}, {289, 290, 291, 292, 293, 294, 295, 296, 297}, {298, 299, 300, 301, 302, 303, 304, 305, 306}, {307, 308, 309, 310, 311, 312, 313, 314, 315}, {316, 317, 318, 319, 320, 321, 322, 323, 324}, {325, 326, 327, 328, 329, 330, 331, 332, 333}, {334, 335, 336, 337, 338, 339, 340, 341, 342}, {343, 344, 345, 346, 347, 348, 349, 350, 351}, {352, 353, 354, 355, 356, 357, 358, 359, 360}, {361, 362, 363, 364, 365, 366, 367, 368, 369}, {370, 371, 372, 373, 374, 375, 376, 377, 378}, {379, 380, 381, 382, 383, 384, 385, 386, 387}, {388, 389, 390, 391, 392, 393, 394, 395, 396}, {397, 398, 399, 400, 401, 402, 403, 404, 405}, {406, 407, 408, 409, 410, 411, 412, 413, 414}, {415, 416, 417, 418, 419, 420, 421, 422, 423}, {424, 425, 426, 427, 428, 429, 430, 431, 432}, {433, 434, 435, 436, 437, 438, 439, 440, 441}, {442, 443, 444, 445, 446, 447, 448, 449, 450}, {451, 452, 453, 454, 455, 456, 457, 458, 459}, {460, 461, 462, 463, 464, 465, 466, 467, 468}, {469, 470, 471, 472, 473, 474, 475, 476, 477}, {478, 479, 480, 481, 482, 483, 484, 485, 486}, {487, 488, 489, 490, 491, 492, 493, 494, 495}, {496, 497, 498, 499, 500, 501, 502, 503, 504}, {505, 506, 507, 508, 509, 510, 511, 512, 513}, {514, 515, 516, 517, 518, 519, 520, 521, 522}, {523, 524, 525, 526, 527, 528, 529, 530, 531}, {532, 533, 534, 535, 536, 537, 538, 539, 540}, {541, 542, 543, 544, 545, 546, 547, 548, 549}, {550, 551, 552, 553, 554, 555, 556, 557, 558}, {559, 560, 561, 562, 563, 564, 565, 566, 567}, {568, 569, 570, 571, 572, 573, 574, 575, 576}, {577, 578, 579, 580, 581, 582, 583, 584, 585}, {586, 587, 588, 589, 590, 591, 592, 593, 594}, {595, 596, 597, 598, 599, 600, 601, 602, 603}, {604, 605, 606, 607, 608, 609, 610, 611, 612}, {613, 614, 615, 616, 617, 618, 619, 620, 621}, {622, 623, 624, 625, 626, 627, 628, 629, 630}, {631, 632, 633, 634, 635, 636, 637, 638, 639}, {640, 641, 642, 643, 644, 645, 646, 647, 648}, {649, 650, 651, 652, 653, 654, 655, 656, 657}, {658, 659, 660, 661, 662, 663, 664, 665, 666}, {667, 668, 669, 670, 671, 672, 673, 674, 675}, {676, 677, 678, 679, 680, 681, 682, 683, 684}, {685, 686, 687, 688, 689, 690, 691, 692, 693}, {694, 695, 696, 697, 698, 699, 700, 701, 702}, {703, 704, 705, 706, 707, 708, 709, 710, 711}, {712, 713, 714, 715, 716, 717, 718, 719, 720}, {721, 722, 723, 724, 725, 726, 727, 728, 729}, {730, 731, 732, 733, 734, 735, 736, 737, 738}, {739, 740, 741, 742, 743, 744, 745, 746, 747}, {748, 749, 750, 751, 752, 753, 754, 755, 756}, {757, 758, 759, 760, 761, 762, 763, 764, 765}, {766, 767, 768, 769, 770, 771, 772, 773, 774}, {775, 776, 777, 778, 779, 780, 781, 782, 783}, {784, 785, 786, 787, 788, 789, 790, 791, 792}, {793, 794, 795, 796, 797, 798, 799, 800, 801}, {802, 803, 804, 805, 806, 807, 808, 809, 810}, {811, 812, 813, 814, 815, 816, 817, 818, 819}, {820, 821, 822, 823, 824, 825, 826, 827, 828}, {829, 830, 831, 832, 833, 834, 835, 836, 837}, {838, 839, 840, 841, 842, 843, 844, 845, 846}, {847, 848, 849, 850, 851, 852, 853, 854, 855}, {856, 857, 858, 859, 860, 861, 862, 863, 864}, {865, 866, 867, 868, 869, 870, 871, 872, 873}, {874, 875, 876, 877, 878, 879, 880, 881, 882}, {883, 884, 885, 886, 887, 888, 889, 890, 891}, {892, 893, 894, 895, 896, 897, 898, 899, 900}];
succ =  [{29, 27, 22, 18, 15, 10}, {27, 26, 25, 17, 15, 14}, {22, 15, 9}, {15, 13, 9}, {29, 17, 16, 14}, {29, 22, 17, 11}, {13, 10}, {31, 30, 27, 26, 19, 15}, {27, 23, 18, 17}, {42, 34, 33, 31, 30, 26, 23, 19}, {32, 31, 30, 27, 24, 15}, {33, 32, 28, 24, 22, 16}, {35, 34, 26, 24, 23, 17}, {37, 34, 33, 32, 24, 23, 22}, {42, 37, 35, 34, 33, 23}, {48, 45, 42, 36, 35, 34, 31, 26}, {45, 42, 37, 32, 31, 30, 28}, {42, 35, 34, 32, 26, 24}, {45, 39, 37, 35, 32, 24}, {37, 31, 22}, {49, 48, 45, 42, 37, 32, 28}, {49, 42, 41, 36, 30}, {48, 45, 28}, {57, 49, 48, 46, 41, 40, 36}, {57, 42, 41, 40, 38, 33}, {49, 39, 38, 37}, {59, 49, 46, 44, 41, 37}, {41, 40, 39, 36}, {50, 41, 39, 37}, {57, 51, 50, 48, 40, 39}, {51, 50, 49, 46, 40, 39}, {44, 41, 40, 38}, {51, 50, 49, 46, 44, 43}, {49, 43, 41, 38}, {57, 44, 43, 38}, {44, 43, 38}, {57, 51, 40}, {66, 58, 56, 55, 54, 53, 52, 51, 50}, {56, 44, 43}, {64, 43}, {55, 52, 51, 47}, {55, 52, 51, 47}, {61, 55, 52, 47}, {66, 64, 62, 61, 58, 54, 53, 52}, {66, 60, 57, 54, 53, 51}, {66, 64, 62, 61, 56, 53}, {66, 63, 62, 58, 54, 53}, {71, 61, 60, 54}, {69, 67, 66, 62, 61, 60}, {67, 64, 62, 61, 59}, {79, 71, 69, 67, 62, 61}, {73, 67, 63, 60}, {79, 77, 71, 70, 69, 68, 67, 65}, {79, 75, 73, 70, 69, 68, 67}, {81, 77, 74, 70, 60}, {81, 77, 73, 70, 60}, {81, 77, 75, 74, 72, 70, 69, 68}, {86, 79, 77, 74, 72, 71, 70}, {79, 77, 75, 74, 70, 69, 68}, {89, 79, 78, 72, 68}, {78, 77, 75, 70, 68}, {100, 89, 86, 83, 81, 80, 77, 72}, {81, 77, 70, 69}, {100, 89, 86, 82, 80, 78, 77, 76}, {89, 86, 83, 81, 80, 72}, {89, 78, 77, 74}, {88, 86, 85, 83, 81, 74}, {100, 86, 85, 84, 83, 80, 76}, {100, 89, 85, 83, 82, 80, 76}, {100, 97, 85, 84, 83, 82, 76}, {99, 98, 89, 87, 85, 83, 82, 81, 80}, {97, 85, 84, 82, 76}, {97, 85, 82, 76}, {99, 98, 94, 93, 87, 84, 82, 80}, {99, 97, 96, 94, 88, 83, 82}, {99, 98, 96, 95, 94, 93, 92, 88, 87}, {98, 93, 92, 88, 87, 85}, {97, 94, 84, 83}, {98, 97, 95, 93, 90, 85}, {97, 95, 92, 91, 90}, {96, 93, 91, 90}, {92, 91, 90}, {95, 93, 92}, {96, 92, 90}, {94, 91}, {91, 90}, {90}, {91}, {91}, {}, {}, {}, {}, {}, {}, {}, {}, {}, {}, {}];
n_opt = 900;
dur = [2, 6, 7, 12, 16, 20, 23, 25, 27, 1, 4, 5, 6, 7, 9, 10, 11, 17, 2, 3, 6, 10, 13, 14, 15, 24, 25, 4, 8, 9, 10, 11, 14, 18, 19, 26, 1, 2, 3, 4, 6, 8, 9, 24, 30, 3, 9, 10, 12, 13, 21, 23, 25, 26, 5, 6, 7, 16, 17, 18, 24, 26, 27, 14, 15, 16, 17, 18, 19, 20, 23, 26, 5, 9, 11, 17, 19, 24, 28, 29, 30, 1, 2, 4, 7, 9, 14, 19, 25, 29, 2, 3, 14, 17, 18, 20, 24, 25, 30, 1, 2, 5, 10, 17, 21, 24, 26, 27, 4, 9, 11, 13, 15, 18, 20, 25, 29, 2, 6, 7, 9, 19, 20, 21, 27, 28, 7, 9, 10, 11, 17, 20, 21, 26, 30, 2, 3, 7, 9, 15, 18, 19, 24, 28, 1, 5, 7, 8, 9, 15, 20, 22, 23, 1, 2, 5, 6, 7, 9, 13, 14, 15, 1, 2, 6, 10, 14, 19, 23, 24, 26, 2, 6, 12, 13, 14, 15, 22, 23, 29, 2, 3, 5, 12, 13, 17, 18, 23, 26, 1, 6, 7, 10, 12, 13, 14, 21, 23, 2, 3, 5, 6, 9, 10, 18, 22, 28, 1, 5, 17, 19, 22, 23, 26, 28, 29, 3, 4, 8, 9, 11, 15, 27, 28, 29, 5, 7, 8, 15, 16, 17, 24, 26, 30, 3, 4, 6, 14, 15, 16, 22, 23, 29, 1, 4, 9, 21, 23, 24, 25, 26, 30, 1, 6, 12, 14, 15, 17, 18, 23, 30, 1, 2, 3, 9, 10, 13, 16, 21, 27, 8, 9, 10, 18, 19, 21, 22, 23, 26, 2, 8, 9, 12, 14, 16, 18, 24, 26, 1, 3, 4, 5, 7, 12, 16, 20, 25, 2, 3, 5, 10, 15, 20, 21, 26, 28, 7, 12, 15, 16, 17, 18, 20, 22, 23, 7, 8, 10, 13, 15, 21, 27, 28, 30, 1, 7, 11, 18, 20, 21, 24, 25, 26, 1, 15, 20, 21, 22, 23, 24, 25, 26, 1, 3, 7, 8, 16, 18, 21, 25, 28, 2, 7, 11, 16, 17, 20, 26, 27, 28, 1, 3, 4, 5, 6, 9, 14, 20, 21, 1, 2, 6, 15, 20, 21, 22, 23, 28, 1, 3, 6, 8, 9, 12, 13, 14, 22, 1, 6, 7, 8, 14, 19, 22, 23, 28, 1, 2, 6, 7, 9, 12, 23, 24, 25, 5, 6, 7, 13, 14, 24, 27, 28, 30, 5, 6, 8, 11, 12, 13, 23, 25, 26, 1, 4, 5, 15, 16, 22, 24, 25, 26, 12, 15, 16, 17, 21, 22, 23, 24, 25, 5, 7, 8, 10, 12, 13, 18, 23, 27, 1, 2, 8, 19, 22, 23, 24, 28, 30, 1, 5, 7, 12, 13, 18, 19, 22, 24, 1, 3, 8, 15, 21, 24, 26, 27, 29, 2, 5, 12, 13, 15, 16, 17, 22, 30, 1, 2, 3, 4, 5, 9, 10, 15, 29, 3, 7, 8, 9, 19, 20, 22, 23, 29, 8, 9, 11, 13, 14, 19, 22, 23, 24, 2, 6, 8, 14, 16, 25, 26, 27, 28, 6, 7, 14, 18, 19, 21, 22, 23, 30, 6, 7, 9, 10, 14, 19, 27, 28, 29, 6, 7, 9, 16, 18, 19, 22, 23, 28, 10, 12, 13, 14, 15, 16, 17, 22, 30, 9, 10, 11, 14, 16, 17, 18, 22, 23, 4, 5, 7, 8, 14, 16, 19, 24, 27, 11, 14, 17, 20, 25, 26, 27, 28, 30, 2, 4, 10, 11, 16, 20, 22, 28, 29, 3, 7, 16, 17, 19, 20, 24, 25, 26, 3, 5, 6, 8, 10, 12, 16, 19, 22, 1, 2, 3, 4, 7, 9, 12, 25, 28, 2, 4, 8, 10, 17, 20, 23, 24, 26, 3, 4, 11, 15, 17, 18, 22, 24, 25, 7, 8, 17, 19, 20, 21, 22, 25, 27, 1, 4, 5, 6, 9, 16, 19, 23, 27, 3, 11, 16, 20, 22, 23, 27, 28, 29, 2, 3, 5, 7, 14, 15, 21, 29, 30, 6, 8, 12, 17, 24, 27, 28, 29, 30, 3, 4, 13, 19, 22, 23, 24, 26, 30, 7, 9, 11, 12, 17, 20, 23, 28, 29, 2, 3, 10, 11, 16, 18, 19, 21, 30, 2, 3, 5, 9, 12, 15, 20, 21, 28, 1, 4, 5, 6, 11, 19, 21, 25, 26, 7, 10, 11, 12, 14, 21, 25, 28, 29, 1, 14, 17, 18, 19, 22, 23, 26, 30, 1, 3, 4, 9, 17, 21, 25, 27, 28, 5, 7, 8, 11, 12, 18, 19, 28, 29, 6, 10, 14, 17, 19, 20, 21, 27, 28, 4, 5, 6, 7, 8, 15, 26, 27, 28, 2, 4, 12, 13, 16, 17, 20, 22, 27, 2, 7, 8, 9, 12, 13, 16, 21, 30, 4, 6, 7, 9, 11, 14, 16, 17, 18, 9, 14, 16, 18, 20, 21, 22, 28, 29, 4, 5, 7, 12, 20, 21, 23, 24, 30, 10, 12, 13, 14, 15, 16, 26, 29, 30, 1, 6, 11, 14, 15, 20, 24, 25, 29, 5, 18, 19, 20, 21, 22, 23, 24, 30, 12, 13, 15, 19, 21, 23, 24, 25, 26, 9, 14, 16, 19, 22, 24, 25, 26, 29, 2, 5, 11, 12, 13, 14, 15, 18, 21, 1, 8, 11, 14, 17, 18, 19, 20, 21, 1, 2, 5, 12, 21, 22, 23, 24, 27];
rreq = [|29, 24, 22, 20, 19, 15, 13, 9, 7, 8, 7, 7, 7, 7, 7, 7, 7, 7, 13, 13, 13, 13, 13, 13, 13, 13, 13, 24, 23, 23, 23, 23, 22, 22, 22, 22, 28, 28, 28, 28, 27, 27, 27, 27, 27, 25, 23, 23, 23, 22, 22, 21, 21, 20, 15, 14, 13, 12, 11, 10, 10, 8, 8, 30, 28, 28, 27, 27, 26, 26, 25, 25, 18, 17, 15, 14, 14, 12, 12, 11, 10, 8, 7, 7, 7, 6, 6, 6, 6, 6, 9, 8, 8, 7, 7, 6, 5, 5, 5, 21, 20, 18, 18, 14, 14, 13, 9, 9, 10, 9, 8, 8, 7, 5, 5, 3, 3, 24, 21, 20, 19, 15, 12, 9, 9, 5, 29, 29, 28, 27, 26, 25, 23, 22, 21, 5, 4, 4, 4, 4, 4, 4, 4, 4, 17, 16, 16, 16, 16, 16, 16, 16, 16, 16, 14, 13, 12, 9, 9, 7, 6, 5, 26, 25, 25, 24, 24, 24, 23, 23, 23, 22, 20, 19, 19, 18, 18, 16, 16, 15, 16, 16, 16, 16, 16, 15, 15, 15, 15, 7, 7, 7, 7, 7, 7, 7, 7, 7, 19, 17, 13, 12, 9, 9, 7, 5, 2, 29, 28, 27, 26, 25, 24, 23, 23, 22, 15, 14, 14, 13, 11, 11, 9, 9, 8, 16, 14, 14, 14, 13, 13, 12, 12, 11, 22, 18, 17, 15, 12, 10, 7, 4, 4, 24, 24, 24, 24, 24, 24, 24, 24, 24, 10, 8, 7, 6, 5, 4, 3, 2, 1, 14, 13, 11, 9, 9, 8, 5, 5, 3, 13, 10, 10, 7, 6, 6, 3, 2, 1, 21, 20, 20, 18, 18, 18, 17, 15, 15, 26, 25, 25, 24, 23, 22, 21, 20, 19, 30, 28, 28, 26, 25, 25, 24, 22, 21, 23, 21, 19, 17, 15, 14, 13, 11, 10, 15, 14, 14, 13, 13, 13, 12, 12, 12, 7, 7, 7, 6, 5, 5, 4, 4, 4, 29, 27, 27, 26, 26, 25, 25, 24, 23, 21, 19, 19, 16, 14, 10, 10, 6, 4, 19, 18, 16, 13, 11, 9, 6, 4, 2, 24, 23, 23, 22, 22, 22, 21, 21, 21, 23, 22, 19, 16, 12, 11, 9, 5, 4, 23, 22, 22, 20, 19, 17, 15, 14, 14, 21, 18, 18, 15, 12, 12, 8, 7, 6, 20, 18, 18, 17, 16, 14, 14, 13, 12, 20, 17, 16, 15, 11, 10, 9, 7, 6, 7, 6, 6, 5, 5, 4, 4, 3, 3, 25, 24, 23, 22, 21, 20, 19, 19, 18, 26, 23, 21, 20, 18, 15, 14, 12, 8, 26, 25, 22, 22, 18, 18, 14, 13, 10, 13, 13, 13, 13, 12, 12, 12, 12, 12, 14, 14, 14, 13, 13, 13, 12, 12, 12, 24, 22, 20, 16, 15, 13, 12, 11, 9, 7, 6, 6, 6, 6, 5, 5, 5, 5, 24, 23, 22, 20, 18, 18, 17, 15, 14, 14, 13, 13, 13, 13, 13, 13, 13, 13, 10, 8, 8, 7, 5, 5, 3, 3, 1, 30, 27, 26, 25, 21, 21, 20, 17, 15, 14, 12, 12, 9, 8, 6, 4, 2, 2, 21, 21, 19, 16, 13, 9, 8, 6, 2, 16, 16, 15, 15, 14, 14, 13, 13, 13, 16, 14, 14, 12, 11, 11, 9, 8, 8, 13, 13, 12, 11, 11, 10, 10, 9, 9, 5, 4, 4, 4, 3, 2, 2, 2, 1, 23, 22, 21, 21, 19, 18, 17, 16, 16, 25, 23, 23, 20, 19, 19, 17, 16, 15, 6, 4, 4, 4, 3, 3, 2, 2, 1, 20, 19, 18, 18, 17, 16, 16, 16, 15, 19, 16, 16, 14, 13, 12, 10, 9, 9, 20, 19, 19, 17, 15, 15, 13, 12, 10, 19, 15, 14, 11, 10, 8, 8, 5, 4, 10, 10, 8, 8, 7, 6, 5, 4, 4, 16, 16, 16, 16, 16, 16, 16, 16, 16, 26, 24, 22, 20, 20, 17, 15, 12, 11, 10, 10, 9, 8, 7, 7, 6, 4, 4, 27, 27, 25, 24, 23, 22, 21, 20, 19, 27, 25, 19, 19, 14, 13, 7, 5, 4, 20, 17, 17, 16, 15, 13, 12, 11, 11, 24, 22, 22, 20, 20, 20, 19, 18, 17, 27, 26, 25, 22, 19, 16, 15, 12, 11, 6, 6, 6, 6, 6, 6, 6, 6, 6, 15, 15, 15, 15, 15, 14, 14, 14, 14, 21, 20, 19, 19, 18, 17, 17, 17, 16, 27, 25, 23, 19, 17, 15, 15, 12, 11, 8, 8, 8, 8, 7, 7, 7, 7, 7, 6, 6, 6, 6, 6, 6, 6, 6, 6, 27, 26, 26, 26, 25, 25, 25, 25, 25, 24, 21, 20, 19, 18, 15, 13, 12, 11, 14, 13, 13, 12, 10, 9, 8, 7, 6, 26, 24, 24, 22, 22, 22, 21, 19, 19, 9, 8, 7, 5, 5, 5, 4, 2, 2, 25, 23, 23, 23, 21, 21, 21, 20, 19, 18, 18, 18, 18, 18, 18, 18, 18, 18, 15, 14, 13, 12, 12, 12, 11, 10, 10, 27, 27, 27, 27, 27, 27, 27, 27, 27, 19, 15, 13, 11, 10, 9, 8, 4, 4, 28, 23, 23, 18, 16, 15, 12, 8, 8, 11, 10, 9, 8, 6, 5, 4, 3, 2, 12, 12, 11, 10, 10, 10, 9, 9, 8, 7, 6, 5, 4, 4, 3, 3, 1, 1
 |26, 25, 25, 25, 24, 23, 23, 22, 22, 23, 21, 19, 14, 11, 11, 8, 6, 2, 25, 22, 22, 20, 20, 19, 18, 16, 15, 19, 16, 15, 13, 11, 11, 8, 8, 6, 28, 27, 26, 25, 24, 24, 23, 22, 21, 16, 15, 15, 14, 14, 13, 13, 13, 12, 16, 14, 14, 13, 12, 12, 12, 11, 10, 26, 26, 26, 26, 25, 25, 25, 24, 24, 5, 4, 4, 4, 4, 3, 3, 3, 3, 30, 29, 29, 29, 29, 29, 29, 29, 29, 26, 22, 22, 19, 19, 16, 15, 15, 13, 29, 27, 26, 24, 23, 23, 21, 21, 19, 14, 14, 14, 13, 13, 13, 12, 12, 12, 27, 26, 25, 24, 24, 23, 22, 22, 21, 26, 25, 25, 24, 24, 24, 23, 23, 23, 30, 26, 23, 18, 16, 14, 11, 7, 7, 14, 11, 11, 9, 7, 6, 3, 3, 1, 27, 26, 23, 23, 21, 18, 17, 15, 14, 19, 16, 14, 13, 11, 10, 8, 8, 5, 26, 22, 21, 18, 15, 11, 7, 7, 3, 23, 23, 21, 19, 15, 12, 10, 9, 7, 7, 5, 5, 5, 4, 3, 2, 1, 1, 26, 26, 26, 25, 25, 25, 24, 24, 24, 24, 22, 22, 21, 18, 18, 17, 14, 13, 22, 22, 20, 20, 19, 19, 17, 16, 16, 25, 22, 20, 20, 19, 17, 14, 13, 12, 12, 11, 11, 10, 10, 9, 9, 7, 7, 23, 22, 22, 21, 21, 20, 20, 19, 19, 11, 10, 10, 10, 10, 9, 9, 9, 9, 12, 12, 12, 12, 12, 12, 12, 12, 12, 23, 22, 22, 20, 20, 19, 19, 18, 17, 10, 9, 7, 7, 6, 5, 4, 3, 3, 29, 27, 25, 23, 22, 21, 19, 19, 17, 30, 29, 29, 29, 28, 28, 28, 28, 28, 14, 13, 13, 12, 11, 11, 11, 10, 10, 22, 21, 19, 18, 17, 17, 15, 14, 13, 22, 21, 21, 20, 20, 20, 19, 19, 19, 21, 20, 19, 17, 17, 15, 13, 13, 12, 9, 9, 9, 9, 8, 8, 8, 8, 8, 16, 15, 14, 12, 10, 10, 7, 7, 5, 10, 10, 10, 10, 10, 10, 10, 10, 10, 16, 15, 15, 14, 12, 11, 9, 8, 7, 29, 23, 23, 19, 16, 12, 7, 4, 4, 29, 26, 26, 24, 23, 20, 19, 19, 17, 20, 15, 13, 13, 11, 8, 7, 4, 1, 26, 26, 21, 18, 15, 14, 9, 5, 2, 23, 23, 21, 20, 18, 17, 15, 14, 13, 24, 23, 23, 21, 19, 18, 18, 16, 14, 29, 28, 28, 27, 27, 27, 27, 26, 26, 16, 16, 16, 16, 15, 15, 15, 15, 15, 26, 26, 25, 25, 25, 24, 24, 23, 23, 13, 12, 12, 11, 10, 10, 9, 9, 9, 25, 24, 20, 19, 17, 17, 14, 11, 11, 27, 24, 20, 19, 15, 14, 10, 7, 5, 17, 16, 16, 15, 14, 13, 11, 11, 10, 24, 22, 20, 20, 18, 14, 13, 9, 7, 20, 18, 17, 16, 16, 14, 14, 13, 12, 15, 14, 14, 14, 13, 13, 13, 12, 12, 22, 21, 21, 21, 21, 21, 21, 21, 21, 28, 27, 26, 24, 21, 18, 16, 14, 14, 21, 20, 18, 13, 13, 10, 7, 4, 4, 8, 7, 6, 5, 4, 4, 4, 2, 2, 20, 16, 14, 13, 11, 10, 7, 4, 4, 28, 28, 28, 28, 28, 28, 28, 28, 28, 28, 26, 24, 22, 18, 18, 14, 12, 12, 27, 27, 25, 24, 24, 24, 23, 21, 21, 30, 24, 21, 20, 13, 10, 9, 4, 2, 27, 27, 27, 27, 27, 27, 27, 27, 27, 17, 14, 13, 13, 10, 9, 8, 7, 6, 26, 25, 23, 21, 18, 16, 14, 11, 7, 8, 8, 7, 7, 7, 6, 6, 5, 5, 25, 24, 24, 24, 23, 23, 22, 21, 21, 17, 16, 14, 13, 10, 7, 6, 5, 2, 22, 22, 20, 18, 17, 17, 16, 14, 12, 22, 21, 21, 21, 20, 20, 19, 19, 19, 17, 15, 14, 11, 9, 7, 6, 4, 2, 11, 11, 10, 8, 8, 7, 5, 4, 4, 11, 10, 10, 10, 10, 10, 10, 10, 10, 17, 17, 15, 14, 14, 13, 12, 10, 10, 13, 13, 13, 13, 13, 13, 13, 13, 13, 21, 21, 21, 21, 20, 20, 20, 20, 20, 29, 26, 26, 25, 23, 23, 22, 21, 19, 28, 24, 23, 21, 17, 15, 13, 10, 7, 10, 9, 7, 6, 6, 6, 4, 3, 3, 25, 24, 24, 24, 23, 23, 23, 23, 23, 10, 10, 10, 10, 10, 10, 10, 10, 10, 8, 8, 8, 8, 8, 8, 8, 8, 8, 20, 18, 18, 15, 13, 12, 8, 8, 5, 19, 18, 18, 18, 18, 18, 18, 18, 18, 16, 15, 14, 12, 9, 8, 6, 5, 3, 20, 20, 20, 20, 20, 20, 20, 20, 20, 28, 25, 25, 22, 18, 18, 16, 12, 11, 13, 13, 10, 8, 7, 6, 5, 4, 1, 17, 13, 13, 10, 9, 9, 6, 6, 3, 23, 22, 22, 21, 20, 17, 16, 15, 15, 17, 17, 15, 14, 12, 11, 9, 6, 6, 23, 22, 22, 22, 21, 21, 20, 20, 20, 25, 23, 20, 19, 16, 16, 12, 11, 9, 16, 15, 12, 10, 10, 7, 7, 5, 3, 24, 20, 20, 17, 14, 14, 10, 8, 6
 |24, 21, 18, 17, 13, 11, 11, 8, 7, 17, 16, 14, 12, 10, 8, 7, 6, 3, 24, 19, 18, 16, 14, 10, 8, 6, 1, 18, 17, 17, 17, 16, 16, 16, 15, 15, 25, 23, 21, 21, 19, 18, 15, 14, 14, 11, 10, 8, 7, 7, 5, 5, 3, 2, 24, 20, 18, 17, 15, 11, 10, 7, 3, 20, 19, 18, 18, 17, 16, 14, 14, 12, 25, 25, 25, 25, 25, 25, 25, 25, 25, 21, 19, 18, 18, 17, 17, 16, 15, 14, 22, 20, 20, 18, 16, 15, 11, 9, 8, 18, 16, 14, 12, 10, 8, 8, 6, 3, 29, 28, 28, 28, 28, 28, 28, 28, 28, 9, 9, 9, 9, 8, 8, 8, 8, 8, 5, 4, 4, 4, 4, 4, 4, 4, 4, 27, 24, 21, 20, 17, 13, 10, 8, 8, 15, 15, 15, 15, 14, 14, 14, 14, 14, 17, 16, 16, 15, 14, 13, 13, 11, 11, 26, 25, 25, 24, 23, 23, 23, 22, 22, 27, 24, 21, 19, 16, 13, 10, 8, 5, 10, 9, 9, 8, 7, 5, 4, 4, 3, 27, 24, 23, 20, 18, 16, 14, 13, 10, 24, 20, 19, 17, 13, 12, 11, 8, 6, 21, 20, 18, 18, 17, 16, 15, 14, 13, 12, 11, 11, 10, 9, 7, 7, 5, 4, 7, 7, 6, 6, 4, 4, 4, 2, 2, 26, 22, 22, 19, 16, 14, 8, 6, 4, 29, 26, 21, 20, 18, 15, 11, 10, 7, 16, 15, 15, 15, 14, 14, 14, 14, 14, 12, 11, 10, 9, 9, 8, 7, 5, 4, 30, 28, 25, 25, 22, 22, 20, 18, 18, 13, 12, 12, 9, 9, 7, 6, 4, 3, 30, 24, 21, 19, 15, 10, 9, 4, 2, 18, 16, 16, 15, 12, 11, 11, 9, 7, 21, 19, 17, 16, 13, 13, 11, 10, 8, 27, 27, 26, 25, 25, 24, 24, 24, 23, 29, 28, 28, 27, 27, 26, 25, 25, 25, 23, 21, 19, 19, 18, 17, 16, 15, 14, 19, 18, 15, 13, 11, 10, 6, 6, 3, 21, 20, 18, 18, 16, 16, 15, 13, 13, 22, 22, 19, 17, 13, 11, 7, 6, 5, 30, 29, 29, 29, 28, 28, 28, 28, 28, 24, 20, 19, 15, 15, 12, 7, 7, 3, 9, 7, 7, 5, 5, 5, 4, 2, 2, 28, 27, 27, 27, 26, 26, 26, 26, 26, 23, 22, 22, 22, 21, 21, 20, 20, 19, 25, 23, 21, 19, 18, 16, 16, 13, 13, 14, 14, 13, 12, 11, 9, 8, 7, 7, 27, 24, 24, 22, 21, 20, 19, 18, 18, 27, 23, 23, 19, 18, 15, 15, 11, 9, 19, 18, 18, 16, 16, 15, 14, 14, 13, 22, 21, 21, 20, 20, 20, 20, 19, 19, 19, 19, 18, 17, 17, 16, 15, 15, 14, 27, 26, 26, 26, 25, 25, 25, 25, 25, 17, 16, 16, 15, 14, 14, 13, 13, 13, 29, 27, 27, 27, 25, 25, 25, 24, 23, 17, 17, 16, 14, 14, 12, 11, 10, 10, 29, 26, 25, 21, 21, 18, 17, 16, 13, 26, 21, 18, 16, 14, 10, 10, 6, 3, 16, 14, 13, 13, 12, 10, 9, 8, 8, 23, 22, 22, 21, 21, 21, 20, 20, 20, 17, 14, 12, 12, 9, 6, 6, 3, 1, 23, 20, 20, 18, 17, 15, 14, 11, 10, 16, 14, 14, 13, 11, 11, 10, 9, 8, 23, 22, 19, 18, 12, 10, 10, 7, 2, 13, 13, 13, 13, 13, 13, 13, 13, 13, 21, 20, 17, 15, 15, 13, 11, 8, 8, 18, 18, 18, 17, 16, 16, 15, 15, 15, 17, 14, 13, 13, 12, 10, 10, 8, 8, 28, 27, 27, 27, 26, 26, 26, 26, 26, 22, 21, 21, 19, 19, 18, 16, 16, 15, 29, 27, 24, 24, 22, 18, 16, 14, 14, 24, 23, 23, 23, 23, 23, 23, 23, 23, 25, 22, 21, 16, 15, 14, 10, 8, 6, 8, 8, 7, 6, 6, 5, 5, 4, 3, 16, 16, 16, 15, 15, 15, 15, 14, 14, 28, 27, 27, 24, 22, 21, 20, 18, 18, 15, 13, 13, 12, 10, 9, 8, 7, 7, 30, 29, 29, 29, 28, 28, 28, 27, 27, 10, 10, 9, 7, 7, 7, 6, 4, 4, 27, 26, 23, 21, 20, 19, 17, 14, 13, 16, 15, 15, 14, 13, 13, 12, 12, 11, 23, 23, 21, 21, 20, 19, 17, 17, 16, 15, 15, 14, 13, 12, 10, 9, 8, 8, 10, 9, 8, 7, 7, 6, 6, 4, 4, 26, 24, 24, 21, 20, 19, 17, 16, 15, 10, 9, 9, 7, 7, 5, 5, 4, 3, 18, 16, 14, 14, 11, 10, 9, 7, 5, 25, 21, 21, 19, 16, 14, 11, 10, 9, 21, 20, 17, 17, 14, 13, 11, 9, 8, 20, 19, 19, 19, 18, 17, 17, 16, 16, 28, 25, 22, 17, 17, 12, 12, 6, 4, 29, 27, 24, 22, 22, 20, 18, 17, 15, 28, 26, 23, 21, 20, 18, 17, 14, 14, 29, 27, 24, 23, 18, 17, 16, 11, 10, 26, 24, 22, 19, 18, 15, 12, 10, 8, 22, 21, 19, 16, 11, 11, 9, 6, 1, 6, 5, 5, 5, 5, 5, 5, 5, 5, 21, 19, 16, 14, 14, 10, 8, 7, 6, 29, 28, 26, 26, 24, 23, 21, 19, 19
 |24, 21, 18, 17, 14, 12, 7, 6, 2, 27, 26, 23, 22, 20, 18, 15, 15, 13, 21, 21, 20, 19, 19, 19, 18, 18, 17, 23, 21, 17, 16, 15, 14, 12, 8, 8, 27, 27, 27, 27, 27, 27, 27, 27, 27, 17, 17, 17, 17, 17, 17, 17, 17, 17, 13, 13, 12, 10, 9, 9, 8, 6, 5, 27, 25, 21, 19, 18, 17, 14, 13, 10, 15, 15, 15, 15, 15, 14, 14, 14, 14, 2, 2, 2, 2, 2, 2, 2, 2, 2, 17, 16, 16, 16, 15, 15, 15, 15, 15, 21, 19, 19, 17, 14, 14, 12, 11, 8, 24, 23, 23, 22, 21, 20, 18, 18, 17, 12, 12, 12, 11, 11, 10, 9, 9, 9, 19, 19, 18, 18, 16, 16, 16, 14, 14, 5, 5, 5, 5, 5, 5, 5, 5, 5, 24, 20, 19, 18, 14, 13, 10, 8, 8, 26, 21, 20, 17, 14, 11, 10, 6, 6, 16, 15, 14, 14, 13, 13, 13, 12, 12, 7, 7, 7, 7, 6, 6, 5, 5, 5, 24, 22, 21, 17, 14, 14, 11, 7, 5, 29, 27, 27, 26, 26, 25, 24, 24, 23, 22, 22, 22, 22, 21, 21, 21, 21, 21, 21, 18, 16, 15, 14, 11, 9, 7, 6, 27, 25, 24, 21, 21, 20, 17, 15, 15, 13, 10, 9, 9, 8, 5, 5, 3, 2, 12, 11, 10, 10, 9, 8, 8, 6, 6, 15, 15, 13, 12, 12, 10, 8, 8, 6, 27, 27, 26, 25, 25, 25, 24, 24, 23, 28, 26, 22, 22, 19, 17, 13, 10, 8, 10, 9, 8, 8, 8, 7, 6, 6, 6, 28, 26, 25, 22, 19, 18, 15, 14, 13, 26, 25, 24, 23, 21, 20, 19, 18, 18, 18, 18, 18, 18, 18, 18, 18, 18, 18, 28, 27, 26, 26, 25, 25, 25, 24, 24, 25, 24, 23, 22, 22, 21, 21, 19, 19, 30, 29, 29, 29, 28, 28, 27, 27, 27, 23, 20, 18, 18, 17, 15, 12, 11, 11, 29, 27, 26, 24, 23, 23, 22, 19, 18, 10, 9, 8, 8, 8, 7, 7, 6, 6, 17, 15, 12, 10, 9, 8, 4, 2, 1, 24, 23, 21, 18, 17, 14, 14, 10, 10, 26, 26, 26, 25, 25, 25, 25, 24, 24, 13, 10, 9, 8, 7, 6, 5, 4, 3, 22, 20, 20, 18, 15, 14, 12, 11, 10, 17, 17, 15, 15, 13, 13, 11, 10, 10, 24, 24, 23, 22, 20, 18, 18, 16, 15, 4, 3, 3, 3, 2, 2, 2, 1, 1, 27, 25, 25, 24, 22, 22, 20, 20, 18, 15, 15, 15, 15, 15, 14, 14, 14, 14, 3, 2, 2, 2, 2, 2, 2, 2, 2, 16, 15, 13, 12, 11, 11, 9, 8, 8, 29, 28, 28, 26, 26, 25, 23, 23, 22, 9, 9, 8, 6, 6, 5, 5, 3, 3, 29, 27, 26, 25, 24, 22, 22, 21, 19, 17, 16, 13, 12, 11, 7, 5, 3, 2, 22, 21, 21, 21, 21, 21, 21, 21, 21, 24, 23, 23, 22, 22, 21, 20, 20, 20, 9, 7, 6, 6, 5, 4, 4, 3, 2, 29, 25, 23, 21, 20, 15, 13, 12, 10, 11, 11, 11, 11, 11, 10, 10, 10, 10, 8, 7, 5, 4, 4, 3, 2, 1, 1, 18, 18, 18, 18, 18, 18, 18, 18, 18, 28, 26, 23, 23, 20, 17, 15, 14, 13, 26, 24, 20, 20, 14, 10, 8, 4, 1, 29, 27, 26, 23, 23, 22, 19, 18, 18, 22, 18, 17, 17, 14, 14, 12, 11, 9, 8, 6, 6, 5, 4, 4, 4, 3, 2, 22, 20, 20, 18, 13, 12, 10, 6, 5, 18, 18, 18, 18, 18, 18, 18, 18, 18, 21, 19, 19, 18, 17, 17, 15, 15, 14, 27, 26, 26, 23, 22, 22, 21, 19, 17, 10, 10, 9, 8, 6, 5, 4, 3, 3, 11, 11, 11, 11, 11, 11, 11, 11, 11, 22, 21, 17, 15, 14, 9, 6, 6, 3, 29, 27, 26, 25, 24, 21, 19, 18, 18, 22, 20, 20, 17, 16, 15, 15, 13, 11, 25, 24, 22, 19, 18, 17, 16, 12, 11, 27, 25, 25, 24, 22, 22, 21, 20, 19, 20, 19, 18, 15, 15, 12, 10, 10, 8, 17, 15, 13, 13, 10, 9, 8, 8, 7, 28, 23, 20, 19, 15, 13, 10, 5, 5, 26, 26, 24, 23, 22, 22, 21, 20, 19, 1, 1, 1, 1, 1, 1, 1, 1, 1, 24, 23, 19, 14, 12, 12, 7, 5, 1, 26, 24, 22, 17, 16, 12, 11, 8, 6, 26, 25, 24, 23, 22, 22, 22, 20, 20, 16, 14, 12, 12, 11, 9, 8, 7, 5, 22, 22, 21, 19, 18, 17, 17, 16, 14, 21, 21, 19, 18, 15, 13, 13, 12, 10, 28, 27, 27, 27, 27, 27, 27, 27, 27, 26, 26, 23, 22, 21, 19, 18, 16, 16, 28, 27, 26, 25, 24, 24, 22, 22, 21, 15, 13, 12, 11, 11, 9, 8, 7, 6, 28, 26, 26, 26, 25, 25, 24, 24, 23, 24, 23, 22, 21, 20, 18, 18, 16, 16, 5, 5, 5, 5, 5, 4, 4, 4, 4, 9, 8, 7, 7, 5, 5, 3, 2, 1, 17, 17, 16, 16, 15, 15, 14, 14, 14, 26, 24, 20, 19, 14, 13, 12, 9, 7
 |27, 27, 26, 25, 24, 24, 23, 22, 22, 25, 25, 24, 23, 22, 20, 19, 18, 18, 27, 26, 22, 21, 19, 16, 16, 13, 12, 21, 20, 19, 18, 18, 17, 16, 15, 15, 25, 24, 23, 23, 21, 21, 20, 20, 19, 20, 20, 19, 18, 17, 17, 16, 15, 15, 3, 3, 3, 3, 3, 2, 2, 2, 2, 1, 1, 1, 1, 1, 1, 1, 1, 1, 3, 3, 3, 3, 3, 3, 3, 3, 3, 23, 22, 22, 22, 21, 21, 20, 19, 19, 15, 15, 14, 12, 11, 10, 9, 7, 7, 26, 24, 23, 22, 21, 20, 19, 18, 18, 29, 27, 23, 23, 21, 17, 15, 15, 12, 25, 21, 20, 14, 13, 10, 9, 5, 3, 17, 16, 16, 15, 15, 15, 14, 14, 13, 7, 6, 6, 6, 6, 6, 6, 6, 6, 26, 24, 21, 16, 13, 12, 8, 7, 5, 20, 20, 19, 19, 19, 18, 18, 17, 17, 25, 21, 19, 14, 13, 11, 7, 6, 3, 25, 23, 22, 21, 18, 18, 15, 14, 12, 5, 4, 4, 4, 3, 3, 3, 2, 2, 23, 20, 19, 18, 16, 16, 14, 13, 12, 25, 24, 23, 21, 17, 15, 15, 12, 10, 17, 15, 13, 11, 9, 9, 6, 6, 5, 25, 24, 23, 21, 21, 19, 19, 18, 17, 12, 11, 10, 9, 8, 6, 6, 4, 4, 16, 15, 14, 13, 12, 12, 12, 10, 10, 16, 16, 16, 16, 15, 15, 15, 15, 15, 6, 5, 5, 5, 5, 5, 5, 5, 5, 25, 19, 18, 16, 11, 10, 7, 6, 2, 22, 21, 20, 20, 19, 17, 16, 15, 14, 3, 3, 3, 3, 3, 3, 3, 3, 3, 26, 24, 21, 19, 16, 13, 12, 9, 4, 19, 19, 18, 15, 15, 13, 12, 11, 10, 24, 24, 23, 22, 21, 19, 18, 18, 17, 28, 27, 23, 21, 21, 20, 18, 16, 14, 24, 24, 24, 23, 23, 23, 22, 22, 22, 7, 6, 5, 4, 4, 4, 3, 2, 2, 28, 23, 22, 20, 15, 13, 10, 7, 6, 21, 18, 17, 16, 13, 11, 9, 6, 6, 25, 25, 22, 20, 15, 13, 10, 8, 5, 8, 6, 6, 5, 4, 4, 4, 3, 2, 20, 19, 19, 18, 17, 17, 16, 16, 16, 24, 23, 22, 22, 22, 21, 21, 20, 20, 17, 14, 13, 13, 10, 8, 8, 5, 4, 28, 26, 24, 23, 21, 19, 18, 14, 13, 25, 21, 20, 16, 13, 11, 10, 9, 6, 25, 23, 23, 22, 20, 20, 18, 17, 17, 28, 28, 27, 24, 24, 23, 20, 19, 19, 25, 24, 23, 23, 23, 22, 22, 21, 21, 18, 17, 17, 17, 16, 16, 16, 16, 16, 21, 21, 21, 21, 21, 21, 21, 21, 21, 5, 4, 4, 4, 4, 4, 4, 4, 4, 27, 26, 26, 26, 25, 24, 24, 22, 22, 6, 6, 6, 6, 5, 5, 5, 5, 5, 14, 14, 12, 10, 10, 7, 6, 4, 3, 12, 11, 11, 10, 10, 10, 9, 9, 9, 22, 20, 20, 18, 18, 17, 16, 15, 15, 20, 20, 20, 19, 19, 19, 18, 18, 18, 9, 7, 7, 7, 6, 6, 5, 5, 4, 11, 10, 10, 10, 10, 9, 9, 9, 9, 21, 19, 16, 15, 11, 9, 7, 5, 5, 28, 25, 23, 21, 18, 17, 14, 12, 10, 24, 21, 20, 18, 18, 16, 13, 13, 10, 26, 25, 24, 23, 23, 22, 20, 19, 19, 17, 16, 16, 15, 14, 14, 13, 13, 12, 24, 23, 21, 17, 15, 13, 11, 11, 8, 20, 19, 19, 19, 18, 18, 18, 18, 18, 25, 23, 21, 20, 17, 17, 14, 13, 12, 21, 17, 15, 15, 13, 10, 7, 5, 3, 26, 25, 25, 24, 23, 22, 20, 19, 19, 29, 27, 27, 25, 23, 23, 21, 20, 19, 25, 25, 22, 21, 19, 17, 16, 15, 13, 29, 29, 29, 29, 29, 28, 28, 28, 28, 27, 26, 26, 25, 24, 24, 23, 23, 23, 16, 15, 14, 14, 13, 12, 10, 9, 9, 16, 15, 14, 14, 14, 13, 12, 12, 12, 7, 7, 7, 7, 7, 7, 7, 7, 7, 10, 10, 10, 10, 10, 10, 10, 10, 10, 15, 14, 14, 13, 12, 10, 9, 8, 7, 23, 22, 21, 20, 20, 20, 19, 19, 18, 28, 26, 25, 24, 23, 21, 21, 18, 17, 14, 13, 12, 12, 10, 10, 10, 9, 8, 18, 17, 15, 15, 14, 12, 12, 11, 9, 18, 18, 16, 16, 15, 14, 13, 13, 12, 28, 28, 26, 25, 24, 24, 22, 21, 21, 18, 16, 15, 14, 14, 11, 11, 9, 9, 8, 7, 7, 7, 7, 7, 7, 7, 7, 24, 23, 23, 21, 19, 18, 15, 15, 14, 19, 17, 16, 15, 15, 13, 13, 11, 11, 11, 11, 9, 9, 8, 5, 4, 4, 3, 18, 17, 16, 15, 14, 13, 12, 10, 10, 24, 23, 23, 21, 21, 19, 19, 17, 16, 17, 16, 16, 16, 15, 15, 15, 15, 15, 20, 17, 15, 12, 11, 11, 7, 7, 5, 19, 18, 18, 18, 18, 18, 18, 18, 18, 20, 19, 19, 18, 17, 15, 14, 13, 12, 22, 21, 18, 17, 13, 13, 9, 8, 7, 24, 23, 21, 19, 19, 16, 15, 14, 13, 26, 25, 25, 25, 25, 24, 24, 24, 24
 |21, 19, 19, 16, 13, 11, 11, 7, 7, 14, 14, 12, 11, 10, 10, 9, 7, 7, 9, 8, 8, 6, 5, 5, 4, 3, 2, 28, 25, 22, 21, 19, 18, 15, 14, 11, 8, 6, 6, 6, 5, 4, 4, 3, 2, 9, 9, 7, 6, 6, 5, 3, 2, 1, 8, 7, 7, 6, 6, 5, 5, 5, 4, 21, 20, 20, 18, 17, 17, 15, 14, 14, 20, 20, 20, 19, 18, 19, 18, 18, 18, 19, 19, 18, 17, 16, 15, 16, 14, 14, 12, 11, 10, 10, 9, 8, 8, 7, 7, 10, 9, 9, 8, 8, 7, 6, 6, 6, 28, 26, 25, 24, 24, 23, 22, 20, 20, 21, 21, 21, 21, 21, 21, 21, 21, 21, 28, 26, 24, 23, 21, 20, 19, 17, 17, 28, 25, 23, 20, 20, 16, 14, 13, 11, 18, 18, 18, 18, 18, 17, 17, 17, 17, 20, 17, 16, 14, 12, 11, 8, 6, 5, 20, 20, 20, 20, 20, 20, 20, 20, 20, 27, 26, 22, 18, 15, 12, 9, 5, 3, 10, 8, 8, 6, 5, 4, 4, 2, 2, 9, 9, 8, 8, 7, 7, 6, 6, 5, 22, 20, 19, 19, 17, 15, 15, 12, 11, 27, 25, 24, 24, 23, 21, 21, 19, 19, 17, 16, 15, 13, 13, 13, 11, 11, 10, 9, 7, 7, 5, 5, 5, 4, 2, 2, 26, 25, 25, 25, 25, 25, 25, 25, 25, 22, 21, 20, 19, 19, 17, 17, 16, 15, 18, 18, 18, 17, 16, 16, 16, 15, 15, 29, 25, 22, 21, 15, 15, 12, 9, 4, 18, 18, 18, 18, 18, 18, 18, 18, 18, 24, 23, 22, 22, 21, 21, 21, 20, 20, 18, 16, 14, 12, 11, 9, 9, 5, 5, 20, 18, 17, 16, 14, 13, 12, 11, 11, 20, 20, 19, 17, 17, 15, 14, 13, 13, 25, 22, 19, 18, 16, 15, 13, 10, 9, 7, 7, 6, 4, 4, 3, 3, 2, 1, 21, 20, 20, 18, 15, 14, 13, 11, 10, 11, 10, 10, 10, 10, 10, 10, 10, 10, 22, 19, 18, 17, 15, 15, 13, 12, 11, 20, 20, 17, 14, 14, 11, 10, 8, 6, 25, 23, 22, 18, 16, 12, 11, 6, 4, 13, 13, 12, 12, 12, 11, 11, 10, 10, 26, 25, 25, 25, 24, 24, 24, 24, 24, 11, 11, 11, 11, 10, 10, 10, 9, 9, 24, 23, 20, 18, 15, 15, 11, 9, 8, 26, 25, 23, 21, 21, 20, 17, 17, 16, 26, 22, 19, 16, 13, 12, 9, 8, 4, 26, 25, 25, 22, 21, 21, 18, 18, 17, 20, 18, 17, 16, 14, 14, 13, 12, 10, 24, 23, 21, 21, 19, 18, 17, 17, 16, 8, 8, 7, 7, 7, 6, 5, 5, 4, 25, 24, 23, 22, 22, 21, 20, 19, 17, 27, 23, 23, 21, 20, 17, 16, 15, 13, 28, 24, 23, 19, 14, 13, 8, 8, 5, 19, 18, 17, 17, 15, 13, 12, 11, 11, 5, 4, 4, 3, 3, 2, 1, 1, 1, 28, 27, 27, 27, 27, 26, 26, 26, 26, 21, 20, 20, 18, 18, 17, 17, 15, 15, 13, 12, 12, 11, 11, 11, 10, 10, 10, 25, 23, 22, 19, 19, 16, 15, 13, 10, 20, 19, 19, 18, 15, 14, 13, 13, 11, 18, 18, 18, 18, 17, 17, 16, 16, 16, 12, 12, 11, 11, 10, 10, 9, 8, 8, 22, 21, 21, 21, 20, 20, 20, 20, 20, 21, 19, 19, 18, 15, 14, 13, 13, 12, 12, 11, 11, 11, 10, 10, 10, 9, 9, 27, 23, 22, 19, 15, 14, 11, 9, 5, 13, 11, 11, 11, 10, 9, 9, 8, 7, 18, 16, 16, 15, 14, 13, 13, 11, 11, 22, 21, 18, 14, 14, 9, 9, 4, 2, 18, 18, 14, 12, 9, 7, 5, 4, 2, 22, 20, 18, 15, 14, 11, 11, 7, 6, 21, 19, 19, 17, 16, 15, 14, 13, 11, 28, 28, 28, 28, 28, 28, 28, 28, 28, 24, 21, 18, 15, 12, 12, 10, 6, 4, 21, 20, 18, 16, 12, 10, 8, 5, 4, 24, 22, 19, 19, 16, 15, 14, 11, 10, 25, 25, 24, 23, 20, 19, 19, 17, 17, 15, 14, 12, 12, 10, 9, 8, 7, 7, 10, 9, 8, 7, 7, 6, 5, 3, 2, 26, 23, 21, 17, 14, 11, 7, 5, 4, 25, 25, 25, 24, 24, 24, 24, 23, 23, 19, 18, 17, 17, 16, 15, 15, 14, 13, 23, 23, 23, 23, 23, 23, 23, 23, 23, 10, 10, 9, 9, 8, 7, 7, 6, 6, 24, 19, 18, 17, 13, 11, 9, 9, 5, 24, 22, 20, 17, 15, 13, 12, 9, 9, 10, 9, 8, 7, 7, 7, 6, 6, 5, 12, 12, 12, 12, 12, 12, 12, 12, 12, 23, 22, 21, 21, 21, 20, 20, 19, 19, 18, 16, 16, 13, 11, 11, 8, 8, 6, 26, 22, 21, 16, 14, 12, 8, 6, 3, 24, 22, 22, 21, 18, 17, 16, 14, 13, 12, 12, 10, 10, 9, 9, 8, 6, 6, 9, 8, 8, 7, 7, 7, 7, 6, 6, 21, 19, 18, 16, 13, 12, 11, 8, 7, 16, 16, 15, 15, 14, 14, 14, 13, 13, 19, 19, 17, 15, 12, 9, 8, 6, 4, 29, 26, 23, 21, 18, 15, 13, 11, 9|];